PROBLEM NAME: eil51_n11
KNAPSACK DATA TYPE: uncorrelated
DIMENSION: 11
NUMBER OF ITEMS: 50
CAPACITY OF KNAPSACK: 2135
MIN SPEED: 0.1
MAX SPEED: 1
RENTING RATIO: 12.58
EDGE_WEIGHT_TYPE: CEIL_2D
NODE_COORD_SECTION	(INDEX, X, Y):
1	37	52
2	31	62
3	31	32
4	52	41
5	13	13
6	62	42
7	42	57
8	37	69
9	32	22
10	56	37
11	30	40
ITEMS SECTION	(INDEX, PROFIT, WEIGHT, ASSIGNED NODE NUMBER):
1	997	199	2
2	994	367	2
3	992	421	2
4	943	895	2
5	931	70	2
6	908	97	8
7	893	984	8
8	874	138	8
9	815	845	8
10	794	995	8
11	791	9	7
12	789	674	7
13	772	645	7
14	766	882	7
15	764	487	7
16	726	98	6
17	724	29	6
18	720	856	6
19	707	242	6
20	700	72	6
21	667	122	10
22	649	322	10
23	633	299	10
24	617	874	10
25	598	94	10
26	569	107	4
27	544	574	4
28	539	719	4
29	537	122	4
30	536	923	4
31	513	267	9
32	506	326	9
33	487	600	9
34	457	43	9
35	446	955	9
36	428	682	5
37	422	252	5
38	419	145	5
39	416	248	5
40	359	901	5
41	334	715	3
42	303	748	3
43	237	795	3
44	196	529	3
45	131	433	3
46	116	277	11
47	94	485	11
48	81	972	11
49	58	213	11
50	7	738	11
